n=10
m=9
c = 4

problem 1:
---------

1  1  0  1  0  1  1  0  0  0
0  0  1  0  0  1  0  0  0  0
0  1  0  0  1  0  0  0  1  0
1  0  0  0  0  1  0  0  0  0
0  1  0  1  1  0  0  0  0  1
0  0  1  0  0  0  0  1  0  0
0  0  1  1  0  0  0  0  0  1
1  0  1  0  1  0  0  0  0  0
1  0  0  1  0  0  0  0  0  0